Instance: E076-10e.dat
Class:  2
   75 --- number of customers (no depot)
   14 --- number of vehicles
  112 --- number of items
Capacity - height - width of vehicles
   140     40     20
Node - x - y - demand
    0    40.0    40.0     0.0
    1    22.0    22.0    18.0
    2    36.0    26.0    26.0
    3    21.0    45.0    11.0
    4    45.0    35.0    30.0
    5    55.0    20.0    21.0
    6    33.0    34.0    19.0
    7    50.0    50.0    15.0
    8    55.0    45.0    16.0
    9    26.0    59.0    29.0
   10    40.0    66.0    26.0
   11    55.0    65.0    37.0
   12    35.0    51.0    16.0
   13    62.0    35.0    12.0
   14    62.0    57.0    31.0
   15    62.0    24.0     8.0
   16    21.0    36.0    19.0
   17    33.0    44.0    20.0
   18     9.0    56.0    13.0
   19    62.0    48.0    15.0
   20    66.0    14.0    22.0
   21    44.0    13.0    28.0
   22    26.0    13.0    12.0
   23    11.0    28.0     6.0
   24     7.0    43.0    27.0
   25    17.0    64.0    14.0
   26    41.0    46.0    18.0
   27    55.0    34.0    17.0
   28    35.0    16.0    29.0
   29    52.0    26.0    13.0
   30    43.0    26.0    22.0
   31    31.0    76.0    25.0
   32    22.0    53.0    28.0
   33    26.0    29.0    27.0
   34    50.0    40.0    19.0
   35    55.0    50.0    10.0
   36    54.0    10.0    12.0
   37    60.0    15.0    14.0
   38    47.0    66.0    24.0
   39    30.0    60.0    16.0
   40    30.0    50.0    33.0
   41    12.0    17.0    15.0
   42    15.0    14.0    11.0
   43    16.0    19.0    18.0
   44    21.0    48.0    17.0
   45    50.0    30.0    21.0
   46    51.0    42.0    27.0
   47    50.0    15.0    19.0
   48    48.0    21.0    20.0
   49    12.0    38.0     5.0
   50    15.0    56.0    22.0
   51    29.0    39.0    12.0
   52    54.0    38.0    19.0
   53    55.0    57.0    22.0
   54    67.0    41.0    16.0
   55    10.0    70.0     7.0
   56     6.0    25.0    26.0
   57    65.0    27.0    14.0
   58    40.0    60.0    21.0
   59    70.0    64.0    24.0
   60    64.0     4.0    13.0
   61    36.0     6.0    15.0
   62    30.0    20.0    18.0
   63    20.0    30.0    11.0
   64    15.0     5.0    28.0
   65    50.0    70.0     9.0
   66    57.0    72.0    37.0
   67    45.0    42.0    30.0
   68    38.0    33.0    10.0
   69    50.0     4.0     8.0
   70    66.0     8.0    11.0
   71    59.0     5.0     3.0
   72    35.0    60.0     1.0
   73    27.0    24.0     6.0
   74    40.0    20.0    10.0
   75    40.0    37.0    20.0
Node - number of items - h - w for each item
    0   0
    1   1    9   10
    2   1   17    2
    3   1   10    4
    4   2   13    5   25    3
    5   2    6   10   34    3
    6   1   19    8
    7   2   25    3   26    2
    8   2   10    4   26    3
    9   2    7   10   27    3
   10   2    8   17   20    3
   11   2    6   12   10    4
   12   2    8    9   17    3
   13   1   25    3
   14   2    5   16   13    5
   15   1    6   18
   16   1    5    9
   17   2    8   17    6   12
   18   1    6   10
   19   1    7   14
   20   1    4   11
   21   2    5   15   12    9
   22   1   22    2
   23   1    7    9
   24   1   12    5
   25   2   10    6   35    4
   26   1   14    8
   27   1    9    8
   28   1    8   16
   29   1    6    9
   30   2    4   13    6    8
   31   1   34    4
   32   1   29    2
   33   1   14    8
   34   1    7    8
   35   2    7   11   30    2
   36   1    6   16
   37   1    8   11
   38   2   34    4   25    2
   39   2    7    9   20    6
   40   1   25    2
   41   2    5   10   15    9
   42   2    8    9   36    3
   43   1    6   11
   44   2    7   14   18    7
   45   2   24    4   29    3
   46   1   13    8
   47   1   15    7
   48   2    6   14   34    3
   49   2    7   18   32    3
   50   1   25    3
   51   1    6   17
   52   1    5   16
   53   1    7   18
   54   2   19   10   27    2
   55   2    7   15   23    3
   56   2    6   18    6    8
   57   1   26    4
   58   1   30    3
   59   1   22    3
   60   1   17    6
   61   2    6   18    7   10
   62   2    7   17   22    3
   63   1   16    3
   64   2   11    5   28    3
   65   2   15    8   19    3
   66   2   19    8   35    4
   67   2   17   10   10    8
   68   2   35    4   26    3
   69   1   11    6
   70   2   19    7   12    5
   71   2    7   16   16    9
   72   2    4   17    9   10
   73   2    9    9   13    5
   74   1    6    8
   75   2   23    4   21    2
